NAME : lr107.1111315.tour
COMMENT : Cost = 0_1111315
COMMENT : Found by LKH [Keld Helsgaun] Fri Sep 15 17:42:01 2017
TYPE : TOUR
DIMENSION : 114
TOUR_SECTION
1
95
93
99
45
15
39
87
17
92
101
38
98
107
34
52
31
89
32
11
64
91
33
71
108
61
84
46
6
104
100
88
58
3
75
73
74
112
28
70
2
77
80
102
79
35
69
81
13
29
111
43
44
16
42
23
76
57
5
26
55
114
21
66
10
67
72
36
82
51
113
27
22
40
24
68
56
25
30
4
78
106
41
54
7
97
60
96
14
59
109
53
8
103
63
12
65
50
20
49
83
19
90
110
48
37
47
9
85
18
62
86
105
94
-1
EOF
